n_machines = 10;
n_resources = 12;
n_jobs = 29;
horizon = 122;
LB = 20;
n_jobs_per_resource = [3, 2, 2, 2, 4, 1, 1, 4, 1, 4, 4, 1];
duration = [9, 3, 2, 1, 4, 8, 8, 6, 5, 6, 3, 7, 2, 2, 3, 6, 3, 7, 4, 1, 2, 2, 2, 2, 8, 6, 1, 2, 7]